
n_res = 8;
rcap = [29, 29, 29, 28, 887, 876, 812, 794];
rtype = [1, 1, 1, 1, 2, 2, 2, 2];
n_tasks = 50;
modes =  [{1, 2, 3}, {4, 5, 6}, {7, 8, 9}, {10, 11, 12}, {13, 14, 15}, {16, 17, 18}, {19, 20, 21}, {22, 23, 24}, {25, 26, 27}, {28, 29, 30}, {31, 32, 33}, {34, 35, 36}, {37, 38, 39}, {40, 41, 42}, {43, 44, 45}, {46, 47, 48}, {49, 50, 51}, {52, 53, 54}, {55, 56, 57}, {58, 59, 60}, {61, 62, 63}, {64, 65, 66}, {67, 68, 69}, {70, 71, 72}, {73, 74, 75}, {76, 77, 78}, {79, 80, 81}, {82, 83, 84}, {85, 86, 87}, {88, 89, 90}, {91, 92, 93}, {94, 95, 96}, {97, 98, 99}, {100, 101, 102}, {103, 104, 105}, {106, 107, 108}, {109, 110, 111}, {112, 113, 114}, {115, 116, 117}, {118, 119, 120}, {121, 122, 123}, {124, 125, 126}, {127, 128, 129}, {130, 131, 132}, {133, 134, 135}, {136, 137, 138}, {139, 140, 141}, {142, 143, 144}, {145, 146, 147}, {148, 149, 150}];
succ =  [{19, 14, 13, 8}, {20, 19, 17, 7}, {33, 30, 29, 26, 22, 13}, {33, 28, 26, 7}, {33, 29, 26, 25, 24, 22}, {35, 30, 29, 28, 25, 22}, {35, 30, 29, 25, 22}, {30, 28, 27, 26, 22}, {38, 29, 26, 20}, {37, 31, 30, 26, 25}, {38, 33, 26, 22}, {43, 14}, {50, 37, 35, 31, 28, 25}, {50, 42, 38, 36, 35, 34, 33, 31, 29}, {50, 36, 31, 29, 25}, {50, 42, 38, 35, 24}, {50, 43, 42, 41, 37, 36, 35, 34, 33, 31}, {50, 49, 38, 34, 31, 29, 28}, {42, 41, 38, 37, 31, 26}, {50, 49, 43, 35, 34, 31, 28}, {50, 48, 43, 41, 38, 37, 34, 33, 32}, {50, 49, 42, 41, 37, 36, 34, 31}, {50, 49, 42, 36, 34, 32, 29}, {49, 43, 41, 37, 36, 34, 31}, {49, 43, 42, 41, 38, 34, 32}, {50, 43, 39, 36, 35, 34, 32}, {42, 36, 34, 31}, {48, 46, 42, 41, 39, 36, 32}, {48, 47, 46, 41, 40, 37}, {47, 46, 43, 41, 40, 39}, {48, 46, 40, 39, 32}, {47, 45, 44}, {49, 45, 44}, {46, 40}, {45, 44}, {40}, {39}, {39}, {44}, {44}, {44}, {45}, {45}, {}, {}, {}, {}, {}, {}, {}];
n_opt = 150;
dur = [16, 19, 20, 10, 18, 19, 1, 21, 23, 3, 14, 16, 12, 14, 24, 9, 11, 21, 2, 5, 21, 3, 15, 16, 10, 19, 27, 13, 14, 26, 5, 14, 16, 15, 17, 25, 10, 23, 26, 13, 22, 30, 12, 19, 24, 1, 4, 21, 11, 19, 22, 7, 16, 20, 17, 24, 25, 3, 4, 20, 8, 27, 28, 7, 18, 30, 7, 9, 24, 11, 13, 29, 21, 22, 30, 2, 4, 25, 5, 25, 28, 7, 16, 17, 2, 5, 6, 7, 18, 21, 16, 19, 28, 4, 16, 17, 12, 13, 14, 3, 13, 29, 3, 5, 19, 19, 20, 23, 8, 13, 21, 5, 9, 22, 11, 17, 24, 3, 5, 25, 5, 15, 28, 4, 16, 21, 2, 21, 23, 4, 16, 28, 12, 19, 22, 13, 21, 27, 5, 13, 29, 13, 22, 27, 1, 4, 15, 19, 28, 29];
rreq = [|4, 2, 1, 4, 4, 2, 3, 2, 2, 4, 2, 2, 4, 2, 1, 2, 1, 1, 5, 3, 2, 4, 4, 3, 5, 5, 5, 5, 3, 3, 4, 3, 3, 2, 2, 2, 2, 1, 1, 5, 3, 2, 2, 2, 2, 4, 3, 2, 2, 1, 1, 3, 2, 2, 5, 3, 2, 5, 5, 5, 3, 2, 2, 5, 4, 4, 5, 3, 2, 1, 1, 1, 2, 2, 2, 4, 3, 1, 1, 1, 1, 4, 3, 3, 2, 1, 1, 3, 2, 1, 5, 3, 2, 2, 2, 2, 4, 4, 3, 3, 3, 3, 4, 3, 1, 4, 4, 4, 4, 3, 2, 5, 2, 2, 4, 4, 4, 3, 1, 1, 4, 4, 3, 5, 5, 5, 5, 4, 3, 5, 3, 3, 3, 1, 1, 2, 1, 1, 3, 2, 2, 5, 5, 5, 4, 4, 4, 4, 2, 1
 |5, 2, 2, 4, 3, 3, 5, 5, 5, 2, 2, 1, 4, 3, 3, 2, 1, 1, 3, 3, 2, 1, 1, 1, 1, 1, 1, 4, 2, 2, 5, 3, 3, 2, 2, 2, 5, 4, 4, 4, 3, 1, 3, 2, 2, 4, 4, 2, 2, 2, 2, 5, 3, 3, 5, 4, 3, 5, 4, 3, 3, 3, 1, 2, 2, 2, 4, 2, 1, 3, 1, 1, 3, 3, 3, 2, 2, 2, 1, 1, 1, 4, 4, 4, 3, 1, 1, 2, 1, 1, 4, 3, 2, 3, 3, 3, 2, 1, 1, 4, 3, 3, 3, 3, 1, 4, 4, 4, 3, 3, 3, 4, 3, 1, 2, 1, 1, 1, 1, 1, 4, 4, 4, 2, 1, 1, 3, 1, 1, 5, 3, 3, 2, 1, 1, 4, 4, 4, 2, 2, 2, 4, 3, 3, 3, 3, 3, 2, 2, 2
 |2, 2, 2, 3, 3, 3, 3, 1, 1, 4, 3, 3, 4, 2, 2, 5, 4, 3, 4, 4, 3, 4, 3, 3, 4, 3, 2, 5, 5, 5, 4, 4, 4, 5, 5, 5, 4, 2, 1, 4, 4, 4, 3, 3, 3, 3, 2, 2, 4, 3, 3, 4, 3, 3, 2, 2, 1, 4, 4, 4, 3, 2, 1, 4, 3, 3, 2, 2, 2, 3, 3, 1, 2, 2, 2, 1, 1, 1, 1, 1, 1, 5, 3, 3, 5, 3, 3, 5, 3, 2, 3, 2, 2, 3, 2, 2, 3, 3, 3, 3, 3, 3, 5, 3, 3, 5, 4, 3, 2, 1, 1, 2, 2, 2, 3, 2, 1, 4, 4, 4, 3, 2, 1, 4, 4, 4, 5, 3, 3, 5, 3, 2, 3, 3, 3, 4, 4, 4, 4, 3, 3, 2, 2, 1, 3, 2, 1, 2, 2, 2
 |4, 3, 3, 5, 3, 3, 5, 3, 3, 3, 2, 2, 3, 2, 2, 3, 3, 1, 1, 1, 1, 4, 3, 2, 2, 2, 2, 3, 3, 3, 5, 3, 2, 4, 4, 2, 5, 4, 3, 3, 3, 3, 3, 2, 1, 3, 3, 3, 2, 2, 1, 3, 3, 3, 3, 3, 2, 4, 3, 3, 5, 4, 3, 2, 1, 1, 1, 1, 1, 1, 1, 1, 2, 2, 1, 5, 4, 3, 2, 2, 2, 5, 5, 5, 1, 1, 1, 3, 1, 1, 3, 2, 1, 1, 1, 1, 5, 5, 5, 1, 1, 1, 2, 2, 2, 3, 3, 3, 3, 2, 2, 3, 1, 1, 3, 3, 2, 4, 4, 3, 4, 4, 4, 1, 1, 1, 4, 4, 3, 3, 2, 2, 4, 3, 2, 4, 3, 3, 5, 4, 4, 4, 3, 2, 2, 2, 2, 1, 1, 1
 |13, 9, 5, 22, 19, 13, 28, 24, 24, 24, 21, 17, 3, 3, 3, 22, 18, 15, 12, 7, 7, 26, 26, 24, 29, 22, 14, 13, 9, 5, 22, 19, 6, 12, 12, 11, 23, 22, 21, 24, 13, 7, 18, 12, 9, 21, 15, 9, 19, 16, 14, 26, 25, 24, 27, 27, 26, 24, 17, 14, 14, 9, 3, 26, 11, 4, 17, 16, 15, 29, 21, 17, 6, 5, 4, 14, 10, 5, 27, 26, 26, 18, 13, 8, 20, 20, 13, 21, 15, 11, 19, 16, 13, 26, 15, 9, 17, 11, 8, 25, 12, 12, 10, 10, 10, 19, 18, 13, 27, 26, 25, 22, 16, 15, 7, 5, 4, 22, 13, 5, 10, 7, 6, 29, 23, 13, 25, 21, 14, 20, 17, 6, 21, 14, 10, 18, 10, 10, 22, 21, 20, 7, 6, 6, 22, 19, 16, 15, 14, 13
 |19, 12, 5, 21, 19, 16, 10, 8, 7, 26, 25, 17, 4, 3, 3, 22, 21, 21, 17, 14, 12, 24, 17, 15, 23, 16, 12, 24, 18, 17, 26, 24, 23, 23, 20, 18, 17, 11, 11, 19, 8, 8, 20, 20, 20, 17, 12, 8, 14, 10, 5, 20, 17, 8, 11, 11, 11, 22, 17, 14, 25, 23, 23, 10, 7, 2, 20, 18, 7, 21, 17, 15, 7, 7, 6, 18, 17, 17, 19, 17, 12, 28, 24, 21, 22, 19, 14, 28, 27, 27, 27, 22, 16, 24, 23, 22, 24, 14, 12, 30, 13, 5, 8, 8, 6, 2, 2, 2, 24, 23, 23, 24, 22, 19, 19, 16, 14, 26, 22, 14, 6, 4, 4, 22, 19, 16, 9, 7, 7, 16, 13, 9, 9, 7, 6, 14, 14, 14, 29, 28, 28, 21, 21, 21, 26, 21, 18, 12, 7, 6
 |27, 25, 22, 7, 7, 5, 10, 8, 7, 27, 24, 19, 20, 20, 16, 20, 14, 8, 20, 15, 3, 14, 12, 9, 26, 22, 16, 28, 27, 22, 20, 14, 6, 12, 7, 5, 9, 9, 8, 12, 10, 9, 12, 12, 6, 21, 10, 2, 7, 5, 3, 20, 16, 5, 26, 25, 23, 19, 16, 6, 10, 9, 7, 13, 12, 10, 20, 18, 14, 15, 13, 10, 21, 20, 20, 10, 9, 9, 15, 10, 4, 14, 11, 4, 12, 11, 7, 28, 26, 25, 19, 18, 17, 21, 17, 7, 11, 11, 11, 11, 10, 8, 18, 17, 13, 19, 17, 16, 24, 18, 18, 20, 20, 13, 19, 16, 5, 13, 10, 8, 10, 7, 3, 29, 23, 17, 9, 6, 3, 24, 24, 24, 21, 15, 6, 24, 17, 14, 25, 16, 15, 25, 15, 8, 28, 18, 13, 18, 15, 10
 |30, 15, 12, 12, 11, 11, 23, 20, 12, 14, 14, 12, 21, 20, 19, 10, 6, 3, 25, 15, 12, 13, 12, 9, 21, 15, 10, 4, 3, 3, 28, 27, 27, 18, 15, 11, 26, 24, 17, 20, 17, 16, 23, 21, 20, 26, 23, 22, 20, 14, 14, 4, 2, 2, 25, 22, 21, 16, 15, 11, 15, 15, 12, 2, 2, 1, 9, 9, 9, 27, 19, 5, 22, 22, 20, 13, 9, 6, 19, 15, 14, 27, 18, 5, 12, 9, 6, 2, 2, 2, 7, 6, 1, 21, 16, 16, 13, 12, 11, 20, 17, 16, 26, 25, 23, 21, 20, 19, 28, 22, 14, 22, 21, 12, 12, 5, 4, 19, 17, 17, 23, 15, 10, 17, 15, 14, 6, 5, 5, 9, 7, 5, 14, 12, 12, 11, 7, 7, 9, 8, 5, 11, 4, 1, 25, 21, 17, 28, 24, 17|];